(set-logic HORN)
(declare-datatypes ((Bool_0 0)) (((false_0 ) (true_0 ))))
(declare-fun diseqBool_0 (Bool_0 Bool_0) Bool)
(declare-datatypes ((Nat_0 0)) (((Z_0 ) (S_0 (projS_0 Nat_0)))))
(declare-datatypes ((list_0 0)) (((nil_0 ) (cons_0 (head_0 Nat_0) (tail_0 list_0)))))
(declare-fun drop_0 (list_0 Nat_0 list_0) Bool)
(declare-fun barbar_0 (Bool_0 Bool_0 Bool_0) Bool)
(declare-fun x_4 (Bool_0 Nat_0 Nat_0) Bool)
(declare-fun elem_0 (Bool_0 Nat_0 list_0) Bool)
(assert (diseqBool_0 false_0 true_0))
(assert (diseqBool_0 true_0 false_0))
(assert (forall ((x_10 list_0) (x_1 Nat_0) (x_2 list_0) (z_1 Nat_0))
	(=> (drop_0 x_10 z_1 x_2) (drop_0 x_10 (S_0 z_1) (cons_0 x_1 x_2)))))
(assert (forall ((z_1 Nat_0))
	(drop_0 nil_0 (S_0 z_1) nil_0)))
(assert (forall ((x_12 list_0))
	(drop_0 x_12 Z_0 x_12)))
(assert (forall ((y_1 Bool_0))
	(barbar_0 true_0 true_0 y_1)))
(assert (forall ((x_14 Bool_0) (x_3 Bool_0))
	(=> (diseqBool_0 x_3 true_0) (barbar_0 x_14 x_3 x_14))))
(assert (forall ((x_15 Bool_0) (y_3 Nat_0) (x_6 Nat_0))
	(=> (x_4 x_15 x_6 y_3) (x_4 x_15 (S_0 x_6) (S_0 y_3)))))
(assert (forall ((x_6 Nat_0))
	(x_4 false_0 (S_0 x_6) Z_0)))
(assert (forall ((z_2 Nat_0))
	(x_4 false_0 Z_0 (S_0 z_2))))
(assert (x_4 true_0 Z_0 Z_0))
(assert (forall ((x_20 Bool_0) (x_21 Bool_0) (x_22 Bool_0) (z_3 Nat_0) (xs_0 list_0) (x_7 Nat_0))
	(=> (and (x_4 x_21 x_7 z_3) (elem_0 x_22 x_7 xs_0) (barbar_0 x_20 x_21 x_22)) (elem_0 x_20 x_7 (cons_0 z_3 xs_0)))))
(assert (forall ((x_7 Nat_0))
	(elem_0 false_0 x_7 nil_0)))
(assert (forall ((x_26 list_0) (x_25 Bool_0) (x_8 Nat_0) (y_5 Nat_0) (z_4 list_0))
	(=> (and (diseqBool_0 x_25 true_0) (drop_0 x_26 y_5 z_4) (elem_0 true_0 x_8 x_26) (elem_0 x_25 x_8 z_4)) false)))
(check-sat)
(get-model)
